; benchmark generated from python API
(set-info :status unknown)
(declare-fun makespan () Int)
(declare-fun 0_y () Int)
(declare-fun 0_x () Int)
(declare-fun ud_1_4 () Bool)
(declare-fun 1_y () Int)
(declare-fun 1_x () Int)
(declare-fun lr_2_1 () Bool)
(declare-fun 2_y () Int)
(declare-fun 2_x () Int)
(declare-fun lr_3_1 () Bool)
(declare-fun 3_y () Int)
(declare-fun 3_x () Int)
(declare-fun 4_y () Int)
(declare-fun 4_x () Int)
(declare-fun ud_5_4 () Bool)
(declare-fun 5_y () Int)
(declare-fun 5_x () Int)
(declare-fun ud_6_4 () Bool)
(declare-fun 6_y () Int)
(declare-fun 6_x () Int)
(declare-fun ud_7_4 () Bool)
(declare-fun 7_y () Int)
(declare-fun 7_x () Int)
(declare-fun 8_y () Int)
(declare-fun 8_x () Int)
(declare-fun lr_1_2 () Bool)
(declare-fun ud_1_2 () Bool)
(declare-fun ud_2_1 () Bool)
(declare-fun lr_1_3 () Bool)
(declare-fun ud_1_3 () Bool)
(declare-fun ud_3_1 () Bool)
(declare-fun lr_1_4 () Bool)
(declare-fun lr_4_1 () Bool)
(declare-fun ud_4_1 () Bool)
(declare-fun lr_1_5 () Bool)
(declare-fun ud_1_5 () Bool)
(declare-fun lr_5_1 () Bool)
(declare-fun ud_5_1 () Bool)
(declare-fun lr_1_6 () Bool)
(declare-fun ud_1_6 () Bool)
(declare-fun lr_6_1 () Bool)
(declare-fun ud_6_1 () Bool)
(declare-fun lr_1_7 () Bool)
(declare-fun ud_1_7 () Bool)
(declare-fun lr_7_1 () Bool)
(declare-fun ud_7_1 () Bool)
(declare-fun lr_1_8 () Bool)
(declare-fun ud_1_8 () Bool)
(declare-fun lr_8_1 () Bool)
(declare-fun ud_8_1 () Bool)
(declare-fun lr_1_9 () Bool)
(declare-fun ud_1_9 () Bool)
(declare-fun lr_9_1 () Bool)
(declare-fun ud_9_1 () Bool)
(declare-fun lr_2_3 () Bool)
(declare-fun ud_2_3 () Bool)
(declare-fun lr_3_2 () Bool)
(declare-fun ud_3_2 () Bool)
(declare-fun lr_2_4 () Bool)
(declare-fun ud_2_4 () Bool)
(declare-fun lr_4_2 () Bool)
(declare-fun ud_4_2 () Bool)
(declare-fun lr_2_5 () Bool)
(declare-fun ud_2_5 () Bool)
(declare-fun lr_5_2 () Bool)
(declare-fun ud_5_2 () Bool)
(declare-fun lr_2_6 () Bool)
(declare-fun ud_2_6 () Bool)
(declare-fun lr_6_2 () Bool)
(declare-fun ud_6_2 () Bool)
(declare-fun lr_2_7 () Bool)
(declare-fun ud_2_7 () Bool)
(declare-fun lr_7_2 () Bool)
(declare-fun ud_7_2 () Bool)
(declare-fun lr_2_8 () Bool)
(declare-fun ud_2_8 () Bool)
(declare-fun lr_8_2 () Bool)
(declare-fun ud_8_2 () Bool)
(declare-fun lr_2_9 () Bool)
(declare-fun ud_2_9 () Bool)
(declare-fun lr_9_2 () Bool)
(declare-fun ud_9_2 () Bool)
(declare-fun lr_3_4 () Bool)
(declare-fun ud_3_4 () Bool)
(declare-fun lr_4_3 () Bool)
(declare-fun ud_4_3 () Bool)
(declare-fun lr_3_5 () Bool)
(declare-fun ud_3_5 () Bool)
(declare-fun lr_5_3 () Bool)
(declare-fun ud_5_3 () Bool)
(declare-fun lr_3_6 () Bool)
(declare-fun ud_3_6 () Bool)
(declare-fun lr_6_3 () Bool)
(declare-fun ud_6_3 () Bool)
(declare-fun lr_3_7 () Bool)
(declare-fun ud_3_7 () Bool)
(declare-fun lr_7_3 () Bool)
(declare-fun ud_7_3 () Bool)
(declare-fun lr_3_8 () Bool)
(declare-fun ud_3_8 () Bool)
(declare-fun lr_8_3 () Bool)
(declare-fun ud_8_3 () Bool)
(declare-fun lr_3_9 () Bool)
(declare-fun ud_3_9 () Bool)
(declare-fun lr_9_3 () Bool)
(declare-fun ud_9_3 () Bool)
(declare-fun lr_4_5 () Bool)
(declare-fun ud_4_5 () Bool)
(declare-fun lr_5_4 () Bool)
(declare-fun lr_4_6 () Bool)
(declare-fun ud_4_6 () Bool)
(declare-fun lr_6_4 () Bool)
(declare-fun lr_4_7 () Bool)
(declare-fun ud_4_7 () Bool)
(declare-fun lr_7_4 () Bool)
(declare-fun lr_4_8 () Bool)
(declare-fun ud_4_8 () Bool)
(declare-fun lr_8_4 () Bool)
(declare-fun ud_8_4 () Bool)
(declare-fun lr_4_9 () Bool)
(declare-fun ud_4_9 () Bool)
(declare-fun lr_9_4 () Bool)
(declare-fun ud_9_4 () Bool)
(declare-fun lr_5_6 () Bool)
(declare-fun ud_5_6 () Bool)
(declare-fun lr_6_5 () Bool)
(declare-fun ud_6_5 () Bool)
(declare-fun lr_5_7 () Bool)
(declare-fun ud_5_7 () Bool)
(declare-fun lr_7_5 () Bool)
(declare-fun ud_7_5 () Bool)
(declare-fun lr_5_8 () Bool)
(declare-fun ud_5_8 () Bool)
(declare-fun lr_8_5 () Bool)
(declare-fun ud_8_5 () Bool)
(declare-fun lr_5_9 () Bool)
(declare-fun ud_5_9 () Bool)
(declare-fun lr_9_5 () Bool)
(declare-fun ud_9_5 () Bool)
(declare-fun lr_6_7 () Bool)
(declare-fun ud_6_7 () Bool)
(declare-fun lr_7_6 () Bool)
(declare-fun ud_7_6 () Bool)
(declare-fun lr_6_8 () Bool)
(declare-fun ud_6_8 () Bool)
(declare-fun lr_8_6 () Bool)
(declare-fun ud_8_6 () Bool)
(declare-fun lr_6_9 () Bool)
(declare-fun ud_6_9 () Bool)
(declare-fun lr_9_6 () Bool)
(declare-fun ud_9_6 () Bool)
(declare-fun lr_7_8 () Bool)
(declare-fun ud_7_8 () Bool)
(declare-fun lr_8_7 () Bool)
(declare-fun ud_8_7 () Bool)
(declare-fun lr_7_9 () Bool)
(declare-fun ud_7_9 () Bool)
(declare-fun lr_9_7 () Bool)
(declare-fun ud_9_7 () Bool)
(declare-fun lr_8_9 () Bool)
(declare-fun ud_8_9 () Bool)
(declare-fun lr_9_8 () Bool)
(declare-fun ud_9_8 () Bool)
(assert
 (>= makespan 13))
(assert
 (<= makespan 16))
(assert
 (let ((?x2080 (+ 0_y 6)))
 (<= ?x2080 makespan)))
(assert
 (let ((?x2331 (+ 0_x 7)))
 (<= ?x2331 13)))
(assert
 (>= 0_x 0))
(assert
 (<= 0_y 10))
(assert
 (>= 0_y 0))
(assert
 (<= 0_x 3))
(assert
 (= ud_1_4 false))
(assert
 (let ((?x82024 (+ 1_y 4)))
 (<= ?x82024 makespan)))
(assert
 (let ((?x82023 (+ 1_x 4)))
 (<= ?x82023 13)))
(assert
 (>= 1_x 0))
(assert
 (<= 1_y 12))
(assert
 (>= 1_y 0))
(assert
 (= lr_2_1 false))
(assert
 (let ((?x82070 (+ 2_y 3)))
 (<= ?x82070 makespan)))
(assert
 (let ((?x82069 (+ 2_x 4)))
 (<= ?x82069 13)))
(assert
 (>= 2_x 0))
(assert
 (<= 2_y 13))
(assert
 (>= 2_y 0))
(assert
 (= lr_3_1 false))
(assert
 (let ((?x83049 (+ 3_y 8)))
 (<= ?x83049 makespan)))
(assert
 (let ((?x2694 (+ 3_x 3)))
 (<= ?x2694 13)))
(assert
 (>= 3_x 0))
(assert
 (<= 3_y 8))
(assert
 (>= 3_y 0))
(assert
 (<= 3_y 4))
(assert
 (let ((?x82132 (+ 4_y 7)))
 (<= ?x82132 makespan)))
(assert
 (let ((?x6256 (+ 4_x 3)))
 (<= ?x6256 13)))
(assert
 (>= 4_x 0))
(assert
 (<= 4_y 9))
(assert
 (>= 4_y 0))
(assert
 (= ud_5_4 false))
(assert
 (let ((?x82169 (+ 5_y 6)))
 (<= ?x82169 makespan)))
(assert
 (let ((?x3758 (+ 5_x 3)))
 (<= ?x3758 13)))
(assert
 (>= 5_x 0))
(assert
 (<= 5_y 10))
(assert
 (>= 5_y 0))
(assert
 (= ud_6_4 false))
(assert
 (let ((?x82208 (+ 6_y 5)))
 (<= ?x82208 makespan)))
(assert
 (let ((?x83270 (+ 6_x 3)))
 (<= ?x83270 13)))
(assert
 (>= 6_x 0))
(assert
 (<= 6_y 11))
(assert
 (>= 6_y 0))
(assert
 (= ud_7_4 false))
(assert
 (let ((?x82245 (+ 7_y 4)))
 (<= ?x82245 makespan)))
(assert
 (let ((?x82253 (+ 7_x 3)))
 (<= ?x82253 13)))
(assert
 (>= 7_x 0))
(assert
 (<= 7_y 12))
(assert
 (>= 7_y 0))
(assert
 (let ((?x3327 (+ 8_y 3)))
 (<= ?x3327 makespan)))
(assert
 (let ((?x5707 (+ 8_x 3)))
 (<= ?x5707 13)))
(assert
 (>= 8_x 0))
(assert
 (<= 8_y 13))
(assert
 (>= 8_y 0))
(assert
 (= (<= (+ 0_x 7) 1_x) lr_1_2))
(assert
 (= (<= (+ 0_y 6) 1_y) ud_1_2))
(assert
 (= (<= (+ 1_x 4) 0_x) lr_2_1))
(assert
 (= (<= (+ 1_y 4) 0_y) ud_2_1))
(assert
 (or lr_1_2 lr_2_1 ud_1_2 ud_2_1))
(assert
 (let (($x4421 (< makespan 10)))
 (=> $x4421 (= ud_1_2 false))))
(assert
 (let (($x4421 (< makespan 10)))
 (=> $x4421 (= ud_2_1 false))))
(assert
 (= (<= (+ 0_x 7) 2_x) lr_1_3))
(assert
 (= (<= (+ 0_y 6) 2_y) ud_1_3))
(assert
 (= (<= (+ 2_x 4) 0_x) lr_3_1))
(assert
 (= (<= (+ 2_y 3) 0_y) ud_3_1))
(assert
 (or lr_1_3 lr_3_1 ud_1_3 ud_3_1))
(assert
 (let (($x6326 (< makespan 9)))
 (=> $x6326 (= ud_1_3 false))))
(assert
 (let (($x6326 (< makespan 9)))
 (=> $x6326 (= ud_3_1 false))))
(assert
 (= (<= (+ 0_x 7) 3_x) lr_1_4))
(assert
 (= (<= (+ 0_y 6) 3_y) ud_1_4))
(assert
 (= (<= (+ 3_x 3) 0_x) lr_4_1))
(assert
 (= (<= (+ 3_y 8) 0_y) ud_4_1))
(assert
 (or lr_1_4 lr_4_1 ud_1_4 ud_4_1))
(assert
 (let (($x4747 (= ud_1_4 false)))
 (let (($x82610 (< makespan 14)))
 (=> $x82610 $x4747))))
(assert
 (let (($x82610 (< makespan 14)))
 (=> $x82610 (= ud_4_1 false))))
(assert
 (= (<= (+ 0_x 7) 4_x) lr_1_5))
(assert
 (= (<= (+ 0_y 6) 4_y) ud_1_5))
(assert
 (= (<= (+ 4_x 3) 0_x) lr_5_1))
(assert
 (= (<= (+ 4_y 7) 0_y) ud_5_1))
(assert
 (or lr_1_5 lr_5_1 ud_1_5 ud_5_1))
(assert
 (let (($x82726 (< makespan 13)))
 (=> $x82726 (= ud_1_5 false))))
(assert
 (let (($x82726 (< makespan 13)))
 (=> $x82726 (= ud_5_1 false))))
(assert
 (= (<= (+ 0_x 7) 5_x) lr_1_6))
(assert
 (= (<= (+ 0_y 6) 5_y) ud_1_6))
(assert
 (= (<= (+ 5_x 3) 0_x) lr_6_1))
(assert
 (= (<= (+ 5_y 6) 0_y) ud_6_1))
(assert
 (or lr_1_6 lr_6_1 ud_1_6 ud_6_1))
(assert
 (let (($x82829 (< makespan 12)))
 (=> $x82829 (= ud_1_6 false))))
(assert
 (let (($x82829 (< makespan 12)))
 (=> $x82829 (= ud_6_1 false))))
(assert
 (= (<= (+ 0_x 7) 6_x) lr_1_7))
(assert
 (= (<= (+ 0_y 6) 6_y) ud_1_7))
(assert
 (= (<= (+ 6_x 3) 0_x) lr_7_1))
(assert
 (= (<= (+ 6_y 5) 0_y) ud_7_1))
(assert
 (or lr_1_7 lr_7_1 ud_1_7 ud_7_1))
(assert
 (let (($x82964 (< makespan 11)))
 (=> $x82964 (= ud_1_7 false))))
(assert
 (let (($x82964 (< makespan 11)))
 (=> $x82964 (= ud_7_1 false))))
(assert
 (= (<= (+ 0_x 7) 7_x) lr_1_8))
(assert
 (= (<= (+ 0_y 6) 7_y) ud_1_8))
(assert
 (= (<= (+ 7_x 3) 0_x) lr_8_1))
(assert
 (= (<= (+ 7_y 4) 0_y) ud_8_1))
(assert
 (or lr_1_8 lr_8_1 ud_1_8 ud_8_1))
(assert
 (let (($x4421 (< makespan 10)))
 (=> $x4421 (= ud_1_8 false))))
(assert
 (let (($x4421 (< makespan 10)))
 (=> $x4421 (= ud_8_1 false))))
(assert
 (= (<= (+ 0_x 7) 8_x) lr_1_9))
(assert
 (= (<= (+ 0_y 6) 8_y) ud_1_9))
(assert
 (= (<= (+ 8_x 3) 0_x) lr_9_1))
(assert
 (= (<= (+ 8_y 3) 0_y) ud_9_1))
(assert
 (or lr_1_9 lr_9_1 ud_1_9 ud_9_1))
(assert
 (let (($x6326 (< makespan 9)))
 (=> $x6326 (= ud_1_9 false))))
(assert
 (let (($x6326 (< makespan 9)))
 (=> $x6326 (= ud_9_1 false))))
(assert
 (= (<= (+ 1_x 4) 2_x) lr_2_3))
(assert
 (= (<= (+ 1_y 4) 2_y) ud_2_3))
(assert
 (= (<= (+ 2_x 4) 1_x) lr_3_2))
(assert
 (= (<= (+ 2_y 3) 1_y) ud_3_2))
(assert
 (or lr_2_3 lr_3_2 ud_2_3 ud_3_2))
(assert
 (let (($x83303 (< makespan 7)))
 (=> $x83303 (= ud_2_3 false))))
(assert
 (let (($x83303 (< makespan 7)))
 (=> $x83303 (= ud_3_2 false))))
(assert
 (= (<= (+ 1_x 4) 3_x) lr_2_4))
(assert
 (= (<= (+ 1_y 4) 3_y) ud_2_4))
(assert
 (= (<= (+ 3_x 3) 1_x) lr_4_2))
(assert
 (= (<= (+ 3_y 8) 1_y) ud_4_2))
(assert
 (or lr_2_4 lr_4_2 ud_2_4 ud_4_2))
(assert
 (let (($x82829 (< makespan 12)))
 (=> $x82829 (= ud_2_4 false))))
(assert
 (let (($x82829 (< makespan 12)))
 (=> $x82829 (= ud_4_2 false))))
(assert
 (= (<= (+ 1_x 4) 4_x) lr_2_5))
(assert
 (= (<= (+ 1_y 4) 4_y) ud_2_5))
(assert
 (= (<= (+ 4_x 3) 1_x) lr_5_2))
(assert
 (= (<= (+ 4_y 7) 1_y) ud_5_2))
(assert
 (or lr_2_5 lr_5_2 ud_2_5 ud_5_2))
(assert
 (let (($x82964 (< makespan 11)))
 (=> $x82964 (= ud_2_5 false))))
(assert
 (let (($x82964 (< makespan 11)))
 (=> $x82964 (= ud_5_2 false))))
(assert
 (= (<= (+ 1_x 4) 5_x) lr_2_6))
(assert
 (= (<= (+ 1_y 4) 5_y) ud_2_6))
(assert
 (= (<= (+ 5_x 3) 1_x) lr_6_2))
(assert
 (= (<= (+ 5_y 6) 1_y) ud_6_2))
(assert
 (or lr_2_6 lr_6_2 ud_2_6 ud_6_2))
(assert
 (let (($x4421 (< makespan 10)))
 (=> $x4421 (= ud_2_6 false))))
(assert
 (let (($x4421 (< makespan 10)))
 (=> $x4421 (= ud_6_2 false))))
(assert
 (= (<= (+ 1_x 4) 6_x) lr_2_7))
(assert
 (= (<= (+ 1_y 4) 6_y) ud_2_7))
(assert
 (= (<= (+ 6_x 3) 1_x) lr_7_2))
(assert
 (= (<= (+ 6_y 5) 1_y) ud_7_2))
(assert
 (or lr_2_7 lr_7_2 ud_2_7 ud_7_2))
(assert
 (let (($x6326 (< makespan 9)))
 (=> $x6326 (= ud_2_7 false))))
(assert
 (let (($x6326 (< makespan 9)))
 (=> $x6326 (= ud_7_2 false))))
(assert
 (= (<= (+ 1_x 4) 7_x) lr_2_8))
(assert
 (= (<= (+ 1_y 4) 7_y) ud_2_8))
(assert
 (= (<= (+ 7_x 3) 1_x) lr_8_2))
(assert
 (= (<= (+ 7_y 4) 1_y) ud_8_2))
(assert
 (or lr_2_8 lr_8_2 ud_2_8 ud_8_2))
(assert
 (let (($x82173 (< makespan 8)))
 (=> $x82173 (= ud_2_8 false))))
(assert
 (let (($x82173 (< makespan 8)))
 (=> $x82173 (= ud_8_2 false))))
(assert
 (= (<= (+ 1_x 4) 8_x) lr_2_9))
(assert
 (= (<= (+ 1_y 4) 8_y) ud_2_9))
(assert
 (= (<= (+ 8_x 3) 1_x) lr_9_2))
(assert
 (= (<= (+ 8_y 3) 1_y) ud_9_2))
(assert
 (or lr_2_9 lr_9_2 ud_2_9 ud_9_2))
(assert
 (let (($x83303 (< makespan 7)))
 (=> $x83303 (= ud_2_9 false))))
(assert
 (let (($x83303 (< makespan 7)))
 (=> $x83303 (= ud_9_2 false))))
(assert
 (= (<= (+ 2_x 4) 3_x) lr_3_4))
(assert
 (= (<= (+ 2_y 3) 3_y) ud_3_4))
(assert
 (= (<= (+ 3_x 3) 2_x) lr_4_3))
(assert
 (= (<= (+ 3_y 8) 2_y) ud_4_3))
(assert
 (or lr_3_4 lr_4_3 ud_3_4 ud_4_3))
(assert
 (let (($x82964 (< makespan 11)))
 (=> $x82964 (= ud_3_4 false))))
(assert
 (let (($x82964 (< makespan 11)))
 (=> $x82964 (= ud_4_3 false))))
(assert
 (= (<= (+ 2_x 4) 4_x) lr_3_5))
(assert
 (= (<= (+ 2_y 3) 4_y) ud_3_5))
(assert
 (= (<= (+ 4_x 3) 2_x) lr_5_3))
(assert
 (= (<= (+ 4_y 7) 2_y) ud_5_3))
(assert
 (or lr_3_5 lr_5_3 ud_3_5 ud_5_3))
(assert
 (let (($x4421 (< makespan 10)))
 (=> $x4421 (= ud_3_5 false))))
(assert
 (let (($x4421 (< makespan 10)))
 (=> $x4421 (= ud_5_3 false))))
(assert
 (= (<= (+ 2_x 4) 5_x) lr_3_6))
(assert
 (= (<= (+ 2_y 3) 5_y) ud_3_6))
(assert
 (= (<= (+ 5_x 3) 2_x) lr_6_3))
(assert
 (= (<= (+ 5_y 6) 2_y) ud_6_3))
(assert
 (or lr_3_6 lr_6_3 ud_3_6 ud_6_3))
(assert
 (let (($x6326 (< makespan 9)))
 (=> $x6326 (= ud_3_6 false))))
(assert
 (let (($x6326 (< makespan 9)))
 (=> $x6326 (= ud_6_3 false))))
(assert
 (= (<= (+ 2_x 4) 6_x) lr_3_7))
(assert
 (= (<= (+ 2_y 3) 6_y) ud_3_7))
(assert
 (= (<= (+ 6_x 3) 2_x) lr_7_3))
(assert
 (= (<= (+ 6_y 5) 2_y) ud_7_3))
(assert
 (or lr_3_7 lr_7_3 ud_3_7 ud_7_3))
(assert
 (let (($x82173 (< makespan 8)))
 (=> $x82173 (= ud_3_7 false))))
(assert
 (let (($x82173 (< makespan 8)))
 (=> $x82173 (= ud_7_3 false))))
(assert
 (= (<= (+ 2_x 4) 7_x) lr_3_8))
(assert
 (= (<= (+ 2_y 3) 7_y) ud_3_8))
(assert
 (= (<= (+ 7_x 3) 2_x) lr_8_3))
(assert
 (= (<= (+ 7_y 4) 2_y) ud_8_3))
(assert
 (or lr_3_8 lr_8_3 ud_3_8 ud_8_3))
(assert
 (let (($x83303 (< makespan 7)))
 (=> $x83303 (= ud_3_8 false))))
(assert
 (let (($x83303 (< makespan 7)))
 (=> $x83303 (= ud_8_3 false))))
(assert
 (= (<= (+ 2_x 4) 8_x) lr_3_9))
(assert
 (= (<= (+ 2_y 3) 8_y) ud_3_9))
(assert
 (= (<= (+ 8_x 3) 2_x) lr_9_3))
(assert
 (= (<= (+ 8_y 3) 2_y) ud_9_3))
(assert
 (or lr_3_9 lr_9_3 ud_3_9 ud_9_3))
(assert
 (let (($x3199 (< makespan 6)))
 (=> $x3199 (= ud_3_9 false))))
(assert
 (let (($x3199 (< makespan 6)))
 (=> $x3199 (= ud_9_3 false))))
(assert
 (= (<= (+ 3_x 3) 4_x) lr_4_5))
(assert
 (= (<= (+ 3_y 8) 4_y) ud_4_5))
(assert
 (= (<= (+ 4_x 3) 3_x) lr_5_4))
(assert
 (= (<= (+ 4_y 7) 3_y) ud_5_4))
(assert
 (or lr_4_5 lr_5_4 ud_4_5 ud_5_4))
(assert
 (let (($x82865 (< makespan 15)))
 (=> $x82865 (= ud_4_5 false))))
(assert
 (let (($x7138 (= ud_5_4 false)))
 (let (($x82865 (< makespan 15)))
 (=> $x82865 $x7138))))
(assert
 (= (<= (+ 3_x 3) 5_x) lr_4_6))
(assert
 (= (<= (+ 3_y 8) 5_y) ud_4_6))
(assert
 (= (<= (+ 5_x 3) 3_x) lr_6_4))
(assert
 (= (<= (+ 5_y 6) 3_y) ud_6_4))
(assert
 (or lr_4_6 lr_6_4 ud_4_6 ud_6_4))
(assert
 (let (($x82610 (< makespan 14)))
 (=> $x82610 (= ud_4_6 false))))
(assert
 (let (($x7808 (= ud_6_4 false)))
 (let (($x82610 (< makespan 14)))
 (=> $x82610 $x7808))))
(assert
 (= (<= (+ 3_x 3) 6_x) lr_4_7))
(assert
 (= (<= (+ 3_y 8) 6_y) ud_4_7))
(assert
 (= (<= (+ 6_x 3) 3_x) lr_7_4))
(assert
 (= (<= (+ 6_y 5) 3_y) ud_7_4))
(assert
 (or lr_4_7 lr_7_4 ud_4_7 ud_7_4))
(assert
 (let (($x82726 (< makespan 13)))
 (=> $x82726 (= ud_4_7 false))))
(assert
 (let (($x82235 (= ud_7_4 false)))
 (let (($x82726 (< makespan 13)))
 (=> $x82726 $x82235))))
(assert
 (= (<= (+ 3_x 3) 7_x) lr_4_8))
(assert
 (= (<= (+ 3_y 8) 7_y) ud_4_8))
(assert
 (= (<= (+ 7_x 3) 3_x) lr_8_4))
(assert
 (= (<= (+ 7_y 4) 3_y) ud_8_4))
(assert
 (or lr_4_8 lr_8_4 ud_4_8 ud_8_4))
(assert
 (let (($x82829 (< makespan 12)))
 (=> $x82829 (= ud_4_8 false))))
(assert
 (let (($x82829 (< makespan 12)))
 (=> $x82829 (= ud_8_4 false))))
(assert
 (= (<= (+ 3_x 3) 8_x) lr_4_9))
(assert
 (= (<= (+ 3_y 8) 8_y) ud_4_9))
(assert
 (= (<= (+ 8_x 3) 3_x) lr_9_4))
(assert
 (= (<= (+ 8_y 3) 3_y) ud_9_4))
(assert
 (or lr_4_9 lr_9_4 ud_4_9 ud_9_4))
(assert
 (let (($x82964 (< makespan 11)))
 (=> $x82964 (= ud_4_9 false))))
(assert
 (let (($x82964 (< makespan 11)))
 (=> $x82964 (= ud_9_4 false))))
(assert
 (= (<= (+ 4_x 3) 5_x) lr_5_6))
(assert
 (= (<= (+ 4_y 7) 5_y) ud_5_6))
(assert
 (= (<= (+ 5_x 3) 4_x) lr_6_5))
(assert
 (= (<= (+ 5_y 6) 4_y) ud_6_5))
(assert
 (or lr_5_6 lr_6_5 ud_5_6 ud_6_5))
(assert
 (let (($x82726 (< makespan 13)))
 (=> $x82726 (= ud_5_6 false))))
(assert
 (let (($x82726 (< makespan 13)))
 (=> $x82726 (= ud_6_5 false))))
(assert
 (= (<= (+ 4_x 3) 6_x) lr_5_7))
(assert
 (= (<= (+ 4_y 7) 6_y) ud_5_7))
(assert
 (= (<= (+ 6_x 3) 4_x) lr_7_5))
(assert
 (= (<= (+ 6_y 5) 4_y) ud_7_5))
(assert
 (or lr_5_7 lr_7_5 ud_5_7 ud_7_5))
(assert
 (let (($x82829 (< makespan 12)))
 (=> $x82829 (= ud_5_7 false))))
(assert
 (let (($x82829 (< makespan 12)))
 (=> $x82829 (= ud_7_5 false))))
(assert
 (= (<= (+ 4_x 3) 7_x) lr_5_8))
(assert
 (= (<= (+ 4_y 7) 7_y) ud_5_8))
(assert
 (= (<= (+ 7_x 3) 4_x) lr_8_5))
(assert
 (= (<= (+ 7_y 4) 4_y) ud_8_5))
(assert
 (or lr_5_8 lr_8_5 ud_5_8 ud_8_5))
(assert
 (let (($x82964 (< makespan 11)))
 (=> $x82964 (= ud_5_8 false))))
(assert
 (let (($x82964 (< makespan 11)))
 (=> $x82964 (= ud_8_5 false))))
(assert
 (= (<= (+ 4_x 3) 8_x) lr_5_9))
(assert
 (= (<= (+ 4_y 7) 8_y) ud_5_9))
(assert
 (= (<= (+ 8_x 3) 4_x) lr_9_5))
(assert
 (= (<= (+ 8_y 3) 4_y) ud_9_5))
(assert
 (or lr_5_9 lr_9_5 ud_5_9 ud_9_5))
(assert
 (let (($x4421 (< makespan 10)))
 (=> $x4421 (= ud_5_9 false))))
(assert
 (let (($x4421 (< makespan 10)))
 (=> $x4421 (= ud_9_5 false))))
(assert
 (= (<= (+ 5_x 3) 6_x) lr_6_7))
(assert
 (= (<= (+ 5_y 6) 6_y) ud_6_7))
(assert
 (= (<= (+ 6_x 3) 5_x) lr_7_6))
(assert
 (= (<= (+ 6_y 5) 5_y) ud_7_6))
(assert
 (or lr_6_7 lr_7_6 ud_6_7 ud_7_6))
(assert
 (let (($x82964 (< makespan 11)))
 (=> $x82964 (= ud_6_7 false))))
(assert
 (let (($x82964 (< makespan 11)))
 (=> $x82964 (= ud_7_6 false))))
(assert
 (= (<= (+ 5_x 3) 7_x) lr_6_8))
(assert
 (= (<= (+ 5_y 6) 7_y) ud_6_8))
(assert
 (= (<= (+ 7_x 3) 5_x) lr_8_6))
(assert
 (= (<= (+ 7_y 4) 5_y) ud_8_6))
(assert
 (or lr_6_8 lr_8_6 ud_6_8 ud_8_6))
(assert
 (let (($x4421 (< makespan 10)))
 (=> $x4421 (= ud_6_8 false))))
(assert
 (let (($x4421 (< makespan 10)))
 (=> $x4421 (= ud_8_6 false))))
(assert
 (= (<= (+ 5_x 3) 8_x) lr_6_9))
(assert
 (= (<= (+ 5_y 6) 8_y) ud_6_9))
(assert
 (= (<= (+ 8_x 3) 5_x) lr_9_6))
(assert
 (= (<= (+ 8_y 3) 5_y) ud_9_6))
(assert
 (or lr_6_9 lr_9_6 ud_6_9 ud_9_6))
(assert
 (let (($x6326 (< makespan 9)))
 (=> $x6326 (= ud_6_9 false))))
(assert
 (let (($x6326 (< makespan 9)))
 (=> $x6326 (= ud_9_6 false))))
(assert
 (= (<= (+ 6_x 3) 7_x) lr_7_8))
(assert
 (= (<= (+ 6_y 5) 7_y) ud_7_8))
(assert
 (= (<= (+ 7_x 3) 6_x) lr_8_7))
(assert
 (= (<= (+ 7_y 4) 6_y) ud_8_7))
(assert
 (or lr_7_8 lr_8_7 ud_7_8 ud_8_7))
(assert
 (let (($x6326 (< makespan 9)))
 (=> $x6326 (= ud_7_8 false))))
(assert
 (let (($x6326 (< makespan 9)))
 (=> $x6326 (= ud_8_7 false))))
(assert
 (= (<= (+ 6_x 3) 8_x) lr_7_9))
(assert
 (= (<= (+ 6_y 5) 8_y) ud_7_9))
(assert
 (= (<= (+ 8_x 3) 6_x) lr_9_7))
(assert
 (= (<= (+ 8_y 3) 6_y) ud_9_7))
(assert
 (or lr_7_9 lr_9_7 ud_7_9 ud_9_7))
(assert
 (let (($x82173 (< makespan 8)))
 (=> $x82173 (= ud_7_9 false))))
(assert
 (let (($x82173 (< makespan 8)))
 (=> $x82173 (= ud_9_7 false))))
(assert
 (= (<= (+ 7_x 3) 8_x) lr_8_9))
(assert
 (= (<= (+ 7_y 4) 8_y) ud_8_9))
(assert
 (= (<= (+ 8_x 3) 7_x) lr_9_8))
(assert
 (= (<= (+ 8_y 3) 7_y) ud_9_8))
(assert
 (or lr_8_9 lr_9_8 ud_8_9 ud_9_8))
(assert
 (let (($x83303 (< makespan 7)))
 (=> $x83303 (= ud_8_9 false))))
(assert
 (let (($x83303 (< makespan 7)))
 (=> $x83303 (= ud_9_8 false))))
(check-sat)
